(declare-rel loop ((Array Int Int) (Array Int Int) (Array Int Int) Int Int ))
(declare-rel exit ())
(declare-var i Int )
(declare-var i1 Int )
(declare-var i2 Int )
(declare-var i3 Int )
(declare-var i4 Int )
(declare-var i5 Int )
(declare-var i7 Int )
(declare-var i6 Int )
(declare-var i8 Int )
(declare-var index_limit Int )
(declare-var a_i Int )
(declare-var a_i1 Int )
(declare-var a_i2 Int )
(declare-var a_i3 Int )
(declare-var a_i4 Int )
(declare-var a_i5 Int )
(declare-var a_i6 Int )
(declare-var a_i7 Int )
(declare-var b_i Int )
(declare-var b_i1 Int )
(declare-var b_i2 Int )
(declare-var b_i3 Int )
(declare-var b_i4 Int )
(declare-var b_i5 Int )
(declare-var b_i6 Int )
(declare-var b_i7 Int )
(declare-var c_i Int )
(declare-var c_i1 Int )
(declare-var c_i2 Int )
(declare-var c_i3 Int )
(declare-var c_i4 Int )
(declare-var c_i5 Int )
(declare-var c_i6 Int )
(declare-var c_i7 Int )
(declare-var count Int )
(declare-var a_array (Array Int Int) )
(declare-var a_array1 (Array Int Int) )
(declare-var a_array2 (Array Int Int) )
(declare-var a_array3 (Array Int Int) )
(declare-var a_array4 (Array Int Int) )
(declare-var a_array5 (Array Int Int) )
(declare-var a_array6 (Array Int Int) )
(declare-var a_array7 (Array Int Int) )
(declare-var a_array8 (Array Int Int) )
(declare-var b_array (Array Int Int) )
(declare-var c_array (Array Int Int) )

(rule (=> 
	(and 
		(= i 0)
	)
	(loop a_array b_array c_array i count)
))
(rule (=> 
	(and 
		(loop a_array b_array c_array i count)
		
		(< i (* count 8))
		
		(= b_i (select b_array i))
		(= c_i (select c_array i))
		(= a_i (+ b_i (* c_i (+ i 1))))
		(= a_array1 (store a_array i a_i))

		(= b_i1 (select b_array (+ i 1)))
		(= c_i1 (select c_array (+ i 1)))
		(= a_i1 (+ b_i1 (* c_i1 (+ (+ i 1) 1))))
		(= a_array2 (store a_array1 (+ i 1) a_i1))

		(= b_i2 (select b_array (+ i 2)))
		(= c_i2 (select c_array (+ i 2)))
		(= a_i2 (+ b_i2 (* c_i2 (+ (+ i 2) 1))))
		(= a_array3 (store a_array2 (+ i 2) a_i2))

		(= b_i3 (select b_array (+ i 3)))
		(= c_i3 (select c_array (+ i 3)))
		(= a_i3 (+ b_i3 (* c_i3 (+ (+ i 3) 1))))
		(= a_array4 (store a_array3 (+ i 3) a_i3))

		(= b_i4 (select b_array (+ i 4)))
		(= c_i4 (select c_array (+ i 4)))
		(= a_i4 (+ b_i4 (* c_i4 (+ (+ i 4) 1))))
		(= a_array5 (store a_array4 (+ i 4) a_i4))

		(= b_i5 (select b_array (+ i 5)))
		(= c_i5 (select c_array (+ i 5)))
		(= a_i5 (+ b_i5 (* c_i5 (+ (+ i 5) 1))))
		(= a_array6 (store a_array5 (+ i 5) a_i5))

		(= b_i6 (select b_array (+ i 6)))
		(= c_i6 (select c_array (+ i 6)))
		(= a_i6 (+ b_i6 (* c_i6 (+ (+ i 6) 1))))
		(= a_array7 (store a_array6 (+ i 6) a_i6))

		(= b_i7 (select b_array (+ i 7)))
		(= c_i7 (select c_array (+ i 7)))
		(= a_i7 (+ b_i7 (* c_i7 (+ (+ i 7) 1))))
		(= a_array8 (store a_array7 (+ i 7) a_i7))
	)
	(loop a_array8 b_array c_array (+ i 8) count)
))
(rule (=> 
	(and 
		(loop a_array b_array c_array i count)
		(not (< i (* count 8)))
		;(<= 0 i1)
		;(< i1 (* count 8))
		;(not (< (select b_array i1) (select a_array i1)))
	)
	exit
))
(query exit)